NAME : in_house_7_5
TYPE : TSP
DIMENSION : 7
EDGE_WEIGHT_TYPE : EXPLICIT
EDGE_WEIGHT_FORMAT : UPPER_ROW
COMMENT : INVERSION_SHIFT=3
EDGE_WEIGHT_SECTION
31
38
27
27
1
27
19
5
11
25
17
32
13
11
46
23
42
32
23
22
17
